WARNING: for repeatability, setting FPU to use double precision
============================[ Problem Statistics ]=============================
|                                                                             |
|  Number of variables:            50                                         |
|  Number of clauses:             218                                         |
|  Parse time:                   0.00 s                                       |
|                                                                             |
============================[ Search Statistics ]==============================
| Conflicts |          ORIGINAL         |          LEARNT          | Progress |
|           |    Vars  Clauses Literals |    Limit  Clauses Lit/Cl |          |
===============================================================================
===============================================================================
restarts              : 1
conflicts             : 44             (54795 /sec)
decisions             : 62             (0.00 % random) (77210 /sec)
propagations          : 656            (816936 /sec)
conflict literals     : 230            (9.80 % deleted)
Memory used           : 20.00 MB
CPU time              : 0.000803 s

SATISFIABLE
